c 
p cnf 115 194
4 -7 -6 0
-9 18 12 0
-3 4 21 0
-21 -8 22 0
-22 7 -12 0
8 16 23 0
8 16 -23 0
15 -14 24 0
-24 -6 25 0
-25 1 -12 0
17 26 27 0
17 26 -27 0
17 -26 27 0
17 -26 -27 0
-7 4 28 0
-28 -19 9 0
7 29 30 0
7 29 -30 0
7 -29 30 0
7 -29 -30 0
14 7 -8 0
11 -12 19 0
5 31 32 0
5 31 -32 0
5 -31 32 0
5 -31 -32 0
12 -3 33 0
-33 -14 11 0
-20 12 34 0
-34 -9 -10 0
-12 -2 35 0
-35 -4 36 0
-36 19 -17 0
-9 -3 37 0
-37 -5 15 0
-9 18 11 0
-4 -13 -1 0
-11 38 39 0
-11 38 -39 0
-11 -38 39 0
-11 -38 -39 0
1 -8 40 0
-40 -16 41 0
-41 -2 -20 0
-19 42 43 0
-19 42 -43 0
-19 -42 43 0
-19 -42 -43 0
3 -12 44 0
-44 -20 45 0
-45 -1 -14 0
17 46 47 0
17 46 -47 0
17 -46 47 0
17 -46 -47 0
-8 -4 18 0
18 -8 -12 0
10 -4 48 0
10 -4 -48 0
9 17 49 0
-49 19 -16 0
-15 50 51 0
-15 50 -51 0
-15 -50 51 0
-15 -50 -51 0
-13 5 52 0
-13 5 -52 0
-9 18 53 0
-9 18 -53 0
-7 17 54 0
-7 17 -54 0
-3 4 55 0
-55 -2 56 0
-56 10 12 0
-7 57 58 0
-7 57 -58 0
-7 -57 58 0
-7 -57 -58 0
-20 -5 -13 0
-8 10 -7 0
18 -1 59 0
18 -1 -59 0
-12 -15 -4 0
-1 -5 16 0
-9 8 60 0
-60 15 61 0
-61 17 19 0
-19 62 63 0
-19 62 -63 0
-19 -62 63 0
-19 -62 -63 0
5 64 65 0
5 64 -65 0
5 -64 65 0
5 -64 -65 0
-1 12 66 0
-1 12 -66 0
20 67 68 0
20 67 -68 0
20 -67 68 0
20 -67 -68 0
-16 69 70 0
-16 69 -70 0
-16 -69 70 0
-16 -69 -70 0
3 12 71 0
3 12 -71 0
4 8 72 0
-72 -11 73 0
-73 -20 15 0
12 -5 -18 0
-15 2 74 0
-74 9 75 0
-75 16 12 0
-11 -14 76 0
-11 -14 -76 0
11 -6 77 0
-77 -16 -5 0
17 -14 18 0
5 19 78 0
-78 20 -2 0
14 -8 79 0
-79 4 9 0
-10 -1 80 0
-10 -1 -80 0
9 81 82 0
9 81 -82 0
9 -81 82 0
9 -81 -82 0
3 -4 83 0
-83 -18 -5 0
-10 -16 84 0
-10 -16 -84 0
9 17 85 0
9 17 -85 0
-11 86 87 0
-11 86 -87 0
-11 -86 87 0
-11 -86 -87 0
16 2 88 0
-88 -1 89 0
-89 14 -4 0
1 -18 90 0
-90 16 15 0
6 20 91 0
-91 3 -4 0
20 92 93 0
20 92 -93 0
20 -92 93 0
20 -92 -93 0
7 94 95 0
7 94 -95 0
7 -94 95 0
7 -94 -95 0
-2 96 97 0
-2 96 -97 0
-2 -96 97 0
-2 -96 -97 0
19 -20 98 0
-98 -13 99 0
-99 -11 12 0
-16 -12 100 0
-100 5 101 0
-101 1 15 0
-12 20 102 0
-12 20 -102 0
-4 12 103 0
-4 12 -103 0
19 -17 15 0
-19 17 104 0
-104 -2 105 0
-105 15 -8 0
-4 16 5 0
11 7 18 0
2 15 106 0
-106 -14 -19 0
2 1 107 0
2 1 -107 0
1 108 109 0
1 108 -109 0
1 -108 109 0
1 -108 -109 0
-13 -12 -8 0
8 12 11 0
-10 12 110 0
-110 -2 111 0
-111 6 1 0
-14 112 113 0
-14 112 -113 0
-14 -112 113 0
-14 -112 -113 0
-16 6 114 0
-114 7 115 0
-115 2 -1 0
